100
32
18
25
13
24
31
29
14
4
31
5
4
18
17
2
1
1
1
1
2
2
6
19
1
2
17
1
1
1
2
2
2
4
2
1
18
2
1
1
2
1
1
3
17
1
5
1
2
4
3
1
1
3
2
17
1
2
3
4
1
1
1
3
5
1
2
2
17
3
1
17
17
5
1
4
1
3
2
1
2
4
19
1
3
1
2
1
1
3
1
2
1
2
3
2
1
1
2
1
2
1